RT is False
Default write of storage_offers_DA.csv just to have a file (but constraint should be inactive)
Reading model...
...model read.
creating competitive generators file...
...competitive generators recorded.
Loading data...
.. day-ahead data read.
Compiling instance...
...instance created.
Creating Offer Mitigation (model will solve as dispatch if TRUE)...
NOTE: storage offers will not be mitigated
...storage offer mitigation file created
Converting model to MPEC...
...converted
NOTE: initial MIP solve with only storage competitive to get feasible solution
Solving...

Welcome to IBM(R) ILOG(R) CPLEX(R) Interactive Optimizer 12.9.0.0
  with Simplex, Mixed Integer & Barrier Optimizers
5725-A06 5725-A29 5724-Y48 5724-Y49 5724-Y54 5724-Y55 5655-Y21
Copyright IBM Corp. 1988, 2019.  All Rights Reserved.

Type 'help' for a list of available commands.
Type 'help' followed by a command name for more
information on commands.

CPLEX> Logfile 'cplex.log' closed.
Logfile 'C:\Users\Luke\Desktop\test919\logs\tmplh87drkp.cplex.log' open.
CPLEX> New value for parallel optimization mode: -1
CPLEX> New value for mixed integer optimality gap tolerance: 0.01
CPLEX> New value for integrality tolerance: 1e-09
CPLEX> New value for feasibility tolerance: 0.01
CPLEX> New value for deterministic time limit in ticks: 75000
CPLEX> Problem 'C:\Users\Luke\Desktop\test919\logs\tmpnwlanggr.pyomo.lp' read.
Read time = 0.20 sec. (14.73 ticks)
CPLEX> Problem name         : C:\Users\Luke\Desktop\test919\logs\tmpnwlanggr.pyomo.lp
Objective sense      : Maximize
Variables            :   53805  [Nneg: 1,  Box: 22000,  Free: 4464,
                                 Binary: 27340]
Objective nonzeros   :    9102
Linear constraints   :  123205  [Less: 41346,  Greater: 59096,  Equal: 22763]
  Nonzeros           :  291826
  RHS nonzeros       :   67564

Variables            : Min LB: -5000.000        Max UB: 1000000.       
Objective nonzeros   : Min   : 0.1000000        Max   : 2500.000       
Linear constraints   :
  Nonzeros           : Min   : 0.1000000        Max   : 1000000.       
  RHS nonzeros       : Min   : 0.1000000        Max   : 1000000.       
CPLEX> CPXPARAM_Parallel                                -1
CPXPARAM_Simplex_Tolerances_Feasibility          0.01
CPXPARAM_DetTimeLimit                            75000
CPXPARAM_MIP_Tolerances_MIPGap                   0.01
CPXPARAM_MIP_Tolerances_Integrality              1.0000000000000001e-09
Tried aggregator 3 times.
MIP Presolve eliminated 88336 rows and 18724 columns.
MIP Presolve added 3447 rows and 0 columns.
MIP Presolve modified 24945 coefficients.
Aggregator did 12969 substitutions.
Reduced MIP has 25347 rows, 21620 columns, and 72141 nonzeros.
Reduced MIP has 8548 binaries, 0 generals, 0 SOSs, and 0 indicators.
Presolve time = 0.25 sec. (173.98 ticks)
Probing fixed 384 vars, tightened 2889 bounds.
Probing time = 1.52 sec. (886.28 ticks)
Tried aggregator 2 times.
MIP Presolve eliminated 867 rows and 769 columns.
MIP Presolve modified 2286 coefficients.
Aggregator did 44 substitutions.
Reduced MIP has 24436 rows, 20807 columns, and 69501 nonzeros.
Reduced MIP has 8164 binaries, 0 generals, 0 SOSs, and 0 indicators.
Presolve time = 0.09 sec. (73.86 ticks)
Probing time = 0.03 sec. (16.84 ticks)
Clique table members: 6401.
MIP emphasis: balance optimality and feasibility.
MIP search method: dynamic search.
Parallel mode: opportunistic, using up to 24 threads.
Root relaxation solution time = 0.33 sec. (275.76 ticks)

        Nodes                                         Cuts/
   Node  Left     Objective  IInf  Best Integer    Best Bound    ItCnt     Gap

      0     0      193.0360  2202                    193.0360     6055         
      0     0      193.0360   708                   Cuts: 628     6349         
      0     0      179.3958   568                   Cuts: 535     6561         
      0     0      179.3958   473                   Cuts: 339     6683         
      0     0      179.3958   444                   Cuts: 100     6710         
      0     0      179.3958   428                    Cuts: 92     6733         
      0     0      179.3958   428                    Cuts: 31     6733         
      0    11    infeasible                          179.3958     6844         
Elapsed time = 8.97 sec. (5914.65 ticks, tree = 0.02 MB, solutions = 0)
    285    54    -9167.4398   414                    179.2661     7124         
    733   206    infeasible                          179.2661     8540         
   1212   587   -11441.1178   394                    179.2661    17881         
   1962  1013     -544.0584   344                    179.2661    19811         
   2929  1394      171.3602   356                    179.2661    20692         
   3739  2008      179.2629   354                    179.2661    21568         
   4424  3179      171.3602   319                    179.2661    22019         
   5164  3834      179.2661   293                    179.2661    22553         
   6252  5032      179.2661   272                    179.2661    23390         
*  7895+ 4302                        -2108.1735      179.2661           108.50%
Elapsed time = 16.41 sec. (8419.19 ticks, tree = 36.82 MB, solutions = 1)
* 10289  4472      integral     0      174.2095      179.2661    25020    2.90%
* 10506     0      integral     0      174.2095                  31272     --- 

Clique cuts applied:  1
Implied bound cuts applied:  9
Flow cuts applied:  147
Mixed integer rounding cuts applied:  5
Gomory fractional cuts applied:  43

Root node processing (before b&c):
  Real time             =    8.64 sec. (5905.79 ticks)
Parallel b&c, 24 threads:
  Real time             =   10.53 sec. (4260.66 ticks)
  Sync time (average)   =    0.17 sec.
  Wait time (average)   =    0.00 sec.
                          ------------
Total (root+branch&cut) =   19.17 sec. (10166.45 ticks)

Solution pool: 2 solutions saved.

MIP - Integer optimal solution:  Objective =  1.7420950502e+02
Solution time =   19.19 sec.  Iterations = 31272  Nodes = 10506
Deterministic time = 10166.61 ticks  (529.87 ticks/sec)

CPLEX> Incumbent solution written to file 'C:\Users\Luke\Desktop\test919\logs\tmp9r0ya3e3.cplex.sol'.
CPLEX> NOTE: no warmstart specified for MIP iteration, default behavior is true
NOTE: resolving with all competitive generators using storage-only solution to warmstart
Solving...

Welcome to IBM(R) ILOG(R) CPLEX(R) Interactive Optimizer 12.9.0.0
  with Simplex, Mixed Integer & Barrier Optimizers
5725-A06 5725-A29 5724-Y48 5724-Y49 5724-Y54 5724-Y55 5655-Y21
Copyright IBM Corp. 1988, 2019.  All Rights Reserved.

Type 'help' for a list of available commands.
Type 'help' followed by a command name for more
information on commands.

CPLEX> Logfile 'cplex.log' closed.
Logfile 'C:\Users\Luke\Desktop\test919\logs\tmpcfia0hzg.cplex.log' open.
CPLEX> New value for parallel optimization mode: -1
CPLEX> New value for mixed integer optimality gap tolerance: 0.01
CPLEX> New value for integrality tolerance: 1e-09
CPLEX> New value for feasibility tolerance: 0.01
CPLEX> New value for deterministic time limit in ticks: 75000
CPLEX> Problem 'C:\Users\Luke\Desktop\test919\logs\tmp7vw4dtvs.pyomo.lp' read.
Read time = 0.20 sec. (14.75 ticks)
CPLEX> MIP start file 'C:\Users\Luke\Desktop\test919\logs\tmp0fhj9qgz.cplex.mst' read.
CPLEX> Problem name         : C:\Users\Luke\Desktop\test919\logs\tmp7vw4dtvs.pyomo.lp
Objective sense      : Maximize
Variables            :   54525  [Nneg: 1,  Box: 22720,  Free: 4464,
                                 Binary: 27340]
Objective nonzeros   :    9822
Linear constraints   :  123205  [Less: 41346,  Greater: 59096,  Equal: 22763]
  Nonzeros           :  291826
  RHS nonzeros       :   67564

Variables            : Min LB: -5000.000        Max UB: 1000000.       
Objective nonzeros   : Min   : 0.1000000        Max   : 2500.000       
Linear constraints   :
  Nonzeros           : Min   : 0.1000000        Max   : 1000000.       
  RHS nonzeros       : Min   : 0.1000000        Max   : 1000000.       
CPLEX> CPXPARAM_Parallel                                -1
CPXPARAM_Simplex_Tolerances_Feasibility          0.01
CPXPARAM_DetTimeLimit                            75000
CPXPARAM_MIP_Tolerances_MIPGap                   0.01
CPXPARAM_MIP_Tolerances_Integrality              1.0000000000000001e-09
Warning:  No solution found from 1 MIP starts.
Retaining values of one MIP start for possible repair.
Tried aggregator 3 times.
MIP Presolve eliminated 88336 rows and 19444 columns.
MIP Presolve added 3447 rows and 0 columns.
MIP Presolve modified 24945 coefficients.
Aggregator did 12969 substitutions.
Reduced MIP has 25347 rows, 21620 columns, and 72141 nonzeros.
Reduced MIP has 8548 binaries, 0 generals, 0 SOSs, and 0 indicators.
Presolve time = 0.25 sec. (174.34 ticks)
Probing fixed 384 vars, tightened 2889 bounds.
Probing time = 1.50 sec. (886.28 ticks)
Tried aggregator 2 times.
MIP Presolve eliminated 867 rows and 769 columns.
MIP Presolve modified 2286 coefficients.
Aggregator did 44 substitutions.
Reduced MIP has 24436 rows, 20807 columns, and 69501 nonzeros.
Reduced MIP has 8164 binaries, 0 generals, 0 SOSs, and 0 indicators.
Presolve time = 0.09 sec. (73.86 ticks)
Probing time = 0.03 sec. (16.84 ticks)
Clique table members: 6401.
MIP emphasis: balance optimality and feasibility.
MIP search method: dynamic search.
Parallel mode: opportunistic, using up to 24 threads.
Root relaxation solution time = 0.34 sec. (275.76 ticks)

        Nodes                                         Cuts/
   Node  Left     Objective  IInf  Best Integer    Best Bound    ItCnt     Gap

      0     0      193.0360  2202                    193.0360     6055         
      0     0      193.0360   708                   Cuts: 628     6349         
      0     0      179.3958   568                   Cuts: 535     6561         
      0     0      179.3958   473                   Cuts: 339     6683         
      0     0      179.3958   444                   Cuts: 100     6710         
      0     0      179.3958   428                    Cuts: 92     6733         
      0     0      179.3958   428                    Cuts: 31     6733         
Repair heuristic found nothing.
      0    10    infeasible                          179.3958     6843         
Elapsed time = 9.14 sec. (5951.16 ticks, tree = 0.02 MB, solutions = 0)
    331   141    infeasible                          179.2661     7507         
    679   384      179.2661   416                    179.2661    14801         
   1112   494    -9168.5296   383                    179.2661    19351         
   1818   929    -9307.8105   386                    179.2661    21629         
   2802  1487    -9167.4046   370                    179.2661    23799         
   3443  2892      179.2629   353                    179.2661    24361         
   4048  2947      179.2661   370                    179.2661    24382         
   4534  3384      171.3602   326                    179.2661    24550         
   5072  4566      179.2629   318                    179.2661    65929         
   6954  5342      179.2661   266                    179.2661    83465         
Elapsed time = 18.25 sec. (9053.73 ticks, tree = 45.62 MB, solutions = 0)
  10032  7522      179.2661   250                    179.2661    85093         
  11312  9764      174.8204   262                    179.2661    92636         
  11946 10492      179.2661   258                    179.2661   109344         
  12497 10887      179.2629   160                    179.2661   118220         
  12931 11119    infeasible                          179.2661   126084         
* 13255 11692      integral     0      158.4663      179.2661   138264   13.13%
* 13330  4531      integral     0      174.2095      179.2661   138313    2.90%
  13901  4519      179.2629   141      174.2095      179.2661   141581    2.90%
  14577  4902      179.2661   295      174.2095      179.2661   143294    2.90%
  15657  5189      179.2629    88      174.2095      179.2661   143785    2.90%
Elapsed time = 36.09 sec. (17657.61 ticks, tree = 50.33 MB, solutions = 3)
* 15700  4760      integral     0      174.2095      179.2661   140444    2.90%
  17161  4599      179.2661   236      174.2095      179.2661   141819    2.90%
  17976  4822      179.2629   154      174.2095      179.2661   142342    2.90%

Clique cuts applied:  1
Implied bound cuts applied:  9
Flow cuts applied:  127
Mixed integer rounding cuts applied:  5
Gomory fractional cuts applied:  42

Root node processing (before b&c):
  Real time             =    8.83 sec. (5943.88 ticks)
Parallel b&c, 24 threads:
  Real time             =   29.48 sec. (14777.24 ticks)
  Sync time (average)   =    0.14 sec.
  Wait time (average)   =    0.00 sec.
                          ------------
Total (root+branch&cut) =   38.31 sec. (20721.12 ticks)

Solution pool: 3 solutions saved.

MIP - Integer optimal solution:  Objective =  1.7420950502e+02
Solution time =   38.34 sec.  Iterations = 155846  Nodes = 18137
Deterministic time = 20721.27 ticks  (540.42 ticks/sec)

CPLEX> Incumbent solution written to file 'C:\Users\Luke\Desktop\test919\logs\tmp09s82tyk.cplex.sol'.
CPLEX> Exporting results... 
